WARNING: for repeatability, setting FPU to use double precision
============================[ Problem Statistics ]=============================
|                                                                             |
|  Number of variables:           100                                         |
|  Number of clauses:             449                                         |
|  Parse time:                   0.00 s                                       |
|  Eliminated clauses:           0.00 Mb                                      |
|  Simplification time:          0.00 s                                       |
|                                                                             |
============================[ Search Statistics ]==============================
| Conflicts |          ORIGINAL         |          LEARNT          | Progress |
|           |    Vars  Clauses Literals |    Limit  Clauses Lit/Cl |          |
===============================================================================
|       100 |      96      435     1318 |      159      100      7 |  0.010 % |
|       250 |      96      435     1318 |      175      169      7 |  0.010 % |
|       475 |      96      435     1318 |      192      122      6 |  0.010 % |
|       812 |      93      411     1245 |      212      145      6 |  3.010 % |
===============================================================================
restarts              : 7
conflicts             : 865            (133839 /sec)
decisions             : 1055           (0.00 % random) (163237 /sec)
propagations          : 20200          (3125484 /sec)
conflict literals     : 5455           (21.50 % deleted)
Memory used           : 13.00 MB
CPU time              : 0.006463 s

SATISFIABLE
